Minimize
[ err1 ^ 2 + err2 ^ 2 + err3 ^ 2 + err4 ^ 2 + err5 ^ 2 + err6 ^ 2 + err7 ^ 2 + err8 ^ 2 + err9 ^ 2 + err10 ^ 2 + err11 ^ 2 + err12 ^ 2 + err13 ^ 2 + err14 ^ 2 + err15 ^ 2 + err16 ^ 2 + err17 ^ 2 + err18 ^ 2 + err19 ^ 2 + err20 ^ 2 + err21 ^ 2 + err22 ^ 2 + err23 ^ 2 + err24 ^ 2 + err25 ^ 2 + err26 ^ 2 + err27 ^ 2 + err28 ^ 2 + err29 ^ 2 + err30 ^ 2 + err31 ^ 2 + err32 ^ 2 + err33 ^ 2 + err34 ^ 2 + err35 ^ 2 + err36 ^ 2 + err37 ^ 2 + err38 ^ 2 + err39 ^ 2 + err40 ^ 2 + err41 ^ 2 + err42 ^ 2 + err43 ^ 2 + err44 ^ 2 + err45 ^ 2 + err46 ^ 2 + err47 ^ 2 + err48 ^ 2 + err49 ^ 2 + err50 ^ 2 + err51 ^ 2 + err52 ^ 2 + err53 ^ 2 + err54 ^ 2 + err55 ^ 2 + err56 ^ 2 + err57 ^ 2 + err58 ^ 2 + err59 ^ 2 + err60 ^ 2 + err61 ^ 2 + err62 ^ 2 + err63 ^ 2 + err64 ^ 2 + err65 ^ 2 + err66 ^ 2 + err67 ^ 2 + err68 ^ 2 + err69 ^ 2 + err70 ^ 2 + err71 ^ 2 + err72 ^ 2 + err73 ^ 2 + err74 ^ 2 + err75 ^ 2 + err76 ^ 2 + err77 ^ 2 + err78 ^ 2 + err79 ^ 2 + err80 ^ 2 + err81 ^ 2 + err82 ^ 2 + err83 ^ 2 + err84 ^ 2 + err85 ^ 2 + err86 ^ 2 + err87 ^ 2 + err88 ^ 2 + err89 ^ 2 + err90 ^ 2 + err91 ^ 2 + err92 ^ 2 + err93 ^ 2 + err94 ^ 2 + err95 ^ 2 + err96 ^ 2 + err97 ^ 2 + err98 ^ 2 + err99 ^ 2 + err100 ^ 2 + err101 ^ 2 + err102 ^ 2 + err103 ^ 2 + err104 ^ 2 + err105 ^ 2 + err106 ^ 2 + err107 ^ 2 + err108 ^ 2 + err109 ^ 2 + err110 ^ 2 + err111 ^ 2 ]

Subject To
5.0 layer_1 + layer_c + 4000.0 particle_1 + particle_c +  err1 +  [ 25.0 layer_particle ^ 2 + 16000000.0 particle_layer ^ 2 - 40000.0 layer_particle * particle_layer  ]  <= 1598.6
5.0 layer_1 + layer_c + 4000.0 particle_1 + particle_c +  err1 +  [ 25.0 layer_particle ^ 2 + 16000000.0 particle_layer ^ 2 - 40000.0 layer_particle * particle_layer  ]  >= 1590
4.0 layer_1 + layer_c + 4000.0 particle_1 + particle_c +  err2 +  [ 16.0 layer_particle ^ 2 + 16000000.0 particle_layer ^ 2 - 32000.0 layer_particle * particle_layer  ]  <= 1264.7
3.0 layer_1 + layer_c + 4000.0 particle_1 + particle_c +  err3 +  [ 9.0 layer_particle ^ 2 + 16000000.0 particle_layer ^ 2 - 24000.0 layer_particle * particle_layer  ]  <= 979.0
2.0 layer_1 + layer_c + 4000.0 particle_1 + particle_c +  err4 +  [ 4.0 layer_particle ^ 2 + 16000000.0 particle_layer ^ 2 - 16000.0 layer_particle * particle_layer  ]  <= 698.4
1.0 layer_1 + layer_c + 4000.0 particle_1 + particle_c +  err5 +  [ 1.0 layer_particle ^ 2 + 16000000.0 particle_layer ^ 2 - 8000.0 layer_particle * particle_layer  ]  <= 408.5
5.0 layer_1 + layer_c + 3900.0 particle_1 + particle_c +  err6 +  [ 25.0 layer_particle ^ 2 + 15210000.0 particle_layer ^ 2 - 39000.0 layer_particle * particle_layer  ]  <= 1502.2
4.0 layer_1 + layer_c + 3900.0 particle_1 + particle_c +  err7 +  [ 16.0 layer_particle ^ 2 + 15210000.0 particle_layer ^ 2 - 31200.0 layer_particle * particle_layer  ]  <= 1230.5
3.0 layer_1 + layer_c + 3900.0 particle_1 + particle_c +  err8 +  [ 9.0 layer_particle ^ 2 + 15210000.0 particle_layer ^ 2 - 23400.0 layer_particle * particle_layer  ]  <= 956.4
2.0 layer_1 + layer_c + 3900.0 particle_1 + particle_c +  err9 +  [ 4.0 layer_particle ^ 2 + 15210000.0 particle_layer ^ 2 - 15600.0 layer_particle * particle_layer  ]  <= 682.6
5.0 layer_1 + layer_c + 3800.0 particle_1 + particle_c +  err10 +  [ 25.0 layer_particle ^ 2 + 14440000.0 particle_layer ^ 2 - 38000.0 layer_particle * particle_layer  ]  <= 1471.7
4.0 layer_1 + layer_c + 3800.0 particle_1 + particle_c +  err11 +  [ 16.0 layer_particle ^ 2 + 14440000.0 particle_layer ^ 2 - 30400.0 layer_particle * particle_layer  ]  <= 1203.5
3.0 layer_1 + layer_c + 3800.0 particle_1 + particle_c +  err12 +  [ 9.0 layer_particle ^ 2 + 14440000.0 particle_layer ^ 2 - 22800.0 layer_particle * particle_layer  ]  <= 936.4
2.0 layer_1 + layer_c + 3800.0 particle_1 + particle_c +  err13 +  [ 4.0 layer_particle ^ 2 + 14440000.0 particle_layer ^ 2 - 15200.0 layer_particle * particle_layer  ]  <= 668.5
5.0 layer_1 + layer_c + 3700.0 particle_1 + particle_c +  err14 +  [ 25.0 layer_particle ^ 2 + 13690000.0 particle_layer ^ 2 - 37000.0 layer_particle * particle_layer  ]  <= 1435.1
4.0 layer_1 + layer_c + 3700.0 particle_1 + particle_c +  err15 +  [ 16.0 layer_particle ^ 2 + 13690000.0 particle_layer ^ 2 - 29600.0 layer_particle * particle_layer  ]  <= 1177.0
3.0 layer_1 + layer_c + 3700.0 particle_1 + particle_c +  err16 +  [ 9.0 layer_particle ^ 2 + 13690000.0 particle_layer ^ 2 - 22200.0 layer_particle * particle_layer  ]  <= 912.9
2.0 layer_1 + layer_c + 3700.0 particle_1 + particle_c +  err17 +  [ 4.0 layer_particle ^ 2 + 13690000.0 particle_layer ^ 2 - 14800.0 layer_particle * particle_layer  ]  <= 654.1
5.0 layer_1 + layer_c + 3600.0 particle_1 + particle_c +  err18 +  [ 25.0 layer_particle ^ 2 + 12960000.0 particle_layer ^ 2 - 36000.0 layer_particle * particle_layer  ]  <= 1401.0
4.0 layer_1 + layer_c + 3600.0 particle_1 + particle_c +  err19 +  [ 16.0 layer_particle ^ 2 + 12960000.0 particle_layer ^ 2 - 28800.0 layer_particle * particle_layer  ]  <= 1146.2
3.0 layer_1 + layer_c + 3600.0 particle_1 + particle_c +  err20 +  [ 9.0 layer_particle ^ 2 + 12960000.0 particle_layer ^ 2 - 21600.0 layer_particle * particle_layer  ]  <= 890.0
2.0 layer_1 + layer_c + 3600.0 particle_1 + particle_c +  err21 +  [ 4.0 layer_particle ^ 2 + 12960000.0 particle_layer ^ 2 - 14400.0 layer_particle * particle_layer  ]  <= 640.0
5.0 layer_1 + layer_c + 3500.0 particle_1 + particle_c +  err22 +  [ 25.0 layer_particle ^ 2 + 12250000.0 particle_layer ^ 2 - 35000.0 layer_particle * particle_layer  ]  <= 1363.6
4.0 layer_1 + layer_c + 3500.0 particle_1 + particle_c +  err23 +  [ 16.0 layer_particle ^ 2 + 12250000.0 particle_layer ^ 2 - 28000.0 layer_particle * particle_layer  ]  <= 1115.3
3.0 layer_1 + layer_c + 3500.0 particle_1 + particle_c +  err24 +  [ 9.0 layer_particle ^ 2 + 12250000.0 particle_layer ^ 2 - 21000.0 layer_particle * particle_layer  ]  <= 870.6
2.0 layer_1 + layer_c + 3500.0 particle_1 + particle_c +  err25 +  [ 4.0 layer_particle ^ 2 + 12250000.0 particle_layer ^ 2 - 14000.0 layer_particle * particle_layer  ]  <= 624.3
5.0 layer_1 + layer_c + 3400.0 particle_1 + particle_c +  err26 +  [ 25.0 layer_particle ^ 2 + 11560000.0 particle_layer ^ 2 - 34000.0 layer_particle * particle_layer  ]  <= 1328.2
4.0 layer_1 + layer_c + 3400.0 particle_1 + particle_c +  err27 +  [ 16.0 layer_particle ^ 2 + 11560000.0 particle_layer ^ 2 - 27200.0 layer_particle * particle_layer  ]  <= 1086.5
3.0 layer_1 + layer_c + 3400.0 particle_1 + particle_c +  err28 +  [ 9.0 layer_particle ^ 2 + 11560000.0 particle_layer ^ 2 - 20400.0 layer_particle * particle_layer  ]  <= 846.1
2.0 layer_1 + layer_c + 3400.0 particle_1 + particle_c +  err29 +  [ 4.0 layer_particle ^ 2 + 11560000.0 particle_layer ^ 2 - 13600.0 layer_particle * particle_layer  ]  <= 607.2
5.0 layer_1 + layer_c + 3300.0 particle_1 + particle_c +  err30 +  [ 25.0 layer_particle ^ 2 + 10890000.0 particle_layer ^ 2 - 33000.0 layer_particle * particle_layer  ]  <= 1288.4
4.0 layer_1 + layer_c + 3300.0 particle_1 + particle_c +  err31 +  [ 16.0 layer_particle ^ 2 + 10890000.0 particle_layer ^ 2 - 26400.0 layer_particle * particle_layer  ]  <= 1058.0
3.0 layer_1 + layer_c + 3300.0 particle_1 + particle_c +  err32 +  [ 9.0 layer_particle ^ 2 + 10890000.0 particle_layer ^ 2 - 19800.0 layer_particle * particle_layer  ]  <= 825.7
2.0 layer_1 + layer_c + 3300.0 particle_1 + particle_c +  err33 +  [ 4.0 layer_particle ^ 2 + 10890000.0 particle_layer ^ 2 - 13200.0 layer_particle * particle_layer  ]  <= 593.5
5.0 layer_1 + layer_c + 3200.0 particle_1 + particle_c +  err34 +  [ 25.0 layer_particle ^ 2 + 10240000.0 particle_layer ^ 2 - 32000.0 layer_particle * particle_layer  ]  <= 1255.6
4.0 layer_1 + layer_c + 3200.0 particle_1 + particle_c +  err35 +  [ 16.0 layer_particle ^ 2 + 10240000.0 particle_layer ^ 2 - 25600.0 layer_particle * particle_layer  ]  <= 1030.4
3.0 layer_1 + layer_c + 3200.0 particle_1 + particle_c +  err36 +  [ 9.0 layer_particle ^ 2 + 10240000.0 particle_layer ^ 2 - 19200.0 layer_particle * particle_layer  ]  <= 802.6
2.0 layer_1 + layer_c + 3200.0 particle_1 + particle_c +  err37 +  [ 4.0 layer_particle ^ 2 + 10240000.0 particle_layer ^ 2 - 12800.0 layer_particle * particle_layer  ]  <= 578.6
5.0 layer_1 + layer_c + 3100.0 particle_1 + particle_c +  err38 +  [ 25.0 layer_particle ^ 2 + 9610000.0 particle_layer ^ 2 - 31000.0 layer_particle * particle_layer  ]  <= 1222.3
4.0 layer_1 + layer_c + 3100.0 particle_1 + particle_c +  err39 +  [ 16.0 layer_particle ^ 2 + 9610000.0 particle_layer ^ 2 - 24800.0 layer_particle * particle_layer  ]  <= 1005.8
3.0 layer_1 + layer_c + 3100.0 particle_1 + particle_c +  err40 +  [ 9.0 layer_particle ^ 2 + 9610000.0 particle_layer ^ 2 - 18600.0 layer_particle * particle_layer  ]  <= 783.9
2.0 layer_1 + layer_c + 3100.0 particle_1 + particle_c +  err41 +  [ 4.0 layer_particle ^ 2 + 9610000.0 particle_layer ^ 2 - 12400.0 layer_particle * particle_layer  ]  <= 567.4
5.0 layer_1 + layer_c + 3000.0 particle_1 + particle_c +  err42 +  [ 25.0 layer_particle ^ 2 + 9000000.0 particle_layer ^ 2 - 30000.0 layer_particle * particle_layer  ]  <= 1187.9
4.0 layer_1 + layer_c + 3000.0 particle_1 + particle_c +  err43 +  [ 16.0 layer_particle ^ 2 + 9000000.0 particle_layer ^ 2 - 24000.0 layer_particle * particle_layer  ]  <= 975.7
3.0 layer_1 + layer_c + 3000.0 particle_1 + particle_c +  err44 +  [ 9.0 layer_particle ^ 2 + 9000000.0 particle_layer ^ 2 - 18000.0 layer_particle * particle_layer  ]  <= 763.5
5.0 layer_1 + layer_c + 2900.0 particle_1 + particle_c +  err45 +  [ 25.0 layer_particle ^ 2 + 8410000.0 particle_layer ^ 2 - 29000.0 layer_particle * particle_layer  ]  <= 1149.8
4.0 layer_1 + layer_c + 2900.0 particle_1 + particle_c +  err46 +  [ 16.0 layer_particle ^ 2 + 8410000.0 particle_layer ^ 2 - 23200.0 layer_particle * particle_layer  ]  <= 947.6
3.0 layer_1 + layer_c + 2900.0 particle_1 + particle_c +  err47 +  [ 9.0 layer_particle ^ 2 + 8410000.0 particle_layer ^ 2 - 17400.0 layer_particle * particle_layer  ]  <= 738.4
5.0 layer_1 + layer_c + 2800.0 particle_1 + particle_c +  err48 +  [ 25.0 layer_particle ^ 2 + 7840000.0 particle_layer ^ 2 - 28000.0 layer_particle * particle_layer  ]  <= 1113.6
4.0 layer_1 + layer_c + 2800.0 particle_1 + particle_c +  err49 +  [ 16.0 layer_particle ^ 2 + 7840000.0 particle_layer ^ 2 - 22400.0 layer_particle * particle_layer  ]  <= 914.1
3.0 layer_1 + layer_c + 2800.0 particle_1 + particle_c +  err50 +  [ 9.0 layer_particle ^ 2 + 7840000.0 particle_layer ^ 2 - 16800.0 layer_particle * particle_layer  ]  <= 717.6
5.0 layer_1 + layer_c + 2700.0 particle_1 + particle_c +  err51 +  [ 25.0 layer_particle ^ 2 + 7290000.0 particle_layer ^ 2 - 27000.0 layer_particle * particle_layer  ]  <= 1075.0
4.0 layer_1 + layer_c + 2700.0 particle_1 + particle_c +  err52 +  [ 16.0 layer_particle ^ 2 + 7290000.0 particle_layer ^ 2 - 21600.0 layer_particle * particle_layer  ]  <= 884.4
3.0 layer_1 + layer_c + 2700.0 particle_1 + particle_c +  err53 +  [ 9.0 layer_particle ^ 2 + 7290000.0 particle_layer ^ 2 - 16200.0 layer_particle * particle_layer  ]  <= 695.8
5.0 layer_1 + layer_c + 2600.0 particle_1 + particle_c +  err54 +  [ 25.0 layer_particle ^ 2 + 6760000.0 particle_layer ^ 2 - 26000.0 layer_particle * particle_layer  ]  <= 1039.8
4.0 layer_1 + layer_c + 2600.0 particle_1 + particle_c +  err55 +  [ 16.0 layer_particle ^ 2 + 6760000.0 particle_layer ^ 2 - 20800.0 layer_particle * particle_layer  ]  <= 856.0
3.0 layer_1 + layer_c + 2600.0 particle_1 + particle_c +  err56 +  [ 9.0 layer_particle ^ 2 + 6760000.0 particle_layer ^ 2 - 15600.0 layer_particle * particle_layer  ]  <= 671.6
5.0 layer_1 + layer_c + 2500.0 particle_1 + particle_c +  err57 +  [ 25.0 layer_particle ^ 2 + 6250000.0 particle_layer ^ 2 - 25000.0 layer_particle * particle_layer  ]  <= 1001.3
4.0 layer_1 + layer_c + 2500.0 particle_1 + particle_c +  err58 +  [ 16.0 layer_particle ^ 2 + 6250000.0 particle_layer ^ 2 - 20000.0 layer_particle * particle_layer  ]  <= 828.6
3.0 layer_1 + layer_c + 2500.0 particle_1 + particle_c +  err59 +  [ 9.0 layer_particle ^ 2 + 6250000.0 particle_layer ^ 2 - 15000.0 layer_particle * particle_layer  ]  <= 651.1
5.0 layer_1 + layer_c + 2400.0 particle_1 + particle_c +  err60 +  [ 25.0 layer_particle ^ 2 + 5760000.0 particle_layer ^ 2 - 24000.0 layer_particle * particle_layer  ]  <= 968.9
4.0 layer_1 + layer_c + 2400.0 particle_1 + particle_c +  err61 +  [ 16.0 layer_particle ^ 2 + 5760000.0 particle_layer ^ 2 - 19200.0 layer_particle * particle_layer  ]  <= 798.6
3.0 layer_1 + layer_c + 2400.0 particle_1 + particle_c +  err62 +  [ 9.0 layer_particle ^ 2 + 5760000.0 particle_layer ^ 2 - 14400.0 layer_particle * particle_layer  ]  <= 629.5
5.0 layer_1 + layer_c + 2300.0 particle_1 + particle_c +  err63 +  [ 25.0 layer_particle ^ 2 + 5290000.0 particle_layer ^ 2 - 23000.0 layer_particle * particle_layer  ]  <= 928.5
4.0 layer_1 + layer_c + 2300.0 particle_1 + particle_c +  err64 +  [ 16.0 layer_particle ^ 2 + 5290000.0 particle_layer ^ 2 - 18400.0 layer_particle * particle_layer  ]  <= 767.6
3.0 layer_1 + layer_c + 2300.0 particle_1 + particle_c +  err65 +  [ 9.0 layer_particle ^ 2 + 5290000.0 particle_layer ^ 2 - 13800.0 layer_particle * particle_layer  ]  <= 608.6
5.0 layer_1 + layer_c + 2200.0 particle_1 + particle_c +  err66 +  [ 25.0 layer_particle ^ 2 + 4840000.0 particle_layer ^ 2 - 22000.0 layer_particle * particle_layer  ]  <= 896.4
4.0 layer_1 + layer_c + 2200.0 particle_1 + particle_c +  err67 +  [ 16.0 layer_particle ^ 2 + 4840000.0 particle_layer ^ 2 - 17600.0 layer_particle * particle_layer  ]  <= 741.5
3.0 layer_1 + layer_c + 2200.0 particle_1 + particle_c +  err68 +  [ 9.0 layer_particle ^ 2 + 4840000.0 particle_layer ^ 2 - 13200.0 layer_particle * particle_layer  ]  <= 585.4
5.0 layer_1 + layer_c + 2100.0 particle_1 + particle_c +  err69 +  [ 25.0 layer_particle ^ 2 + 4410000.0 particle_layer ^ 2 - 21000.0 layer_particle * particle_layer  ]  <= 861.2
4.0 layer_1 + layer_c + 2100.0 particle_1 + particle_c +  err70 +  [ 16.0 layer_particle ^ 2 + 4410000.0 particle_layer ^ 2 - 16800.0 layer_particle * particle_layer  ]  <= 713.4
3.0 layer_1 + layer_c + 2100.0 particle_1 + particle_c +  err71 +  [ 9.0 layer_particle ^ 2 + 4410000.0 particle_layer ^ 2 - 12600.0 layer_particle * particle_layer  ]  <= 563.6
5.0 layer_1 + layer_c + 2000.0 particle_1 + particle_c +  err72 +  [ 25.0 layer_particle ^ 2 + 4000000.0 particle_layer ^ 2 - 20000.0 layer_particle * particle_layer  ]  <= 822.7
4.0 layer_1 + layer_c + 2000.0 particle_1 + particle_c +  err73 +  [ 16.0 layer_particle ^ 2 + 4000000.0 particle_layer ^ 2 - 16000.0 layer_particle * particle_layer  ]  <= 682.6
5.0 layer_1 + layer_c + 1900.0 particle_1 + particle_c +  err74 +  [ 25.0 layer_particle ^ 2 + 3610000.0 particle_layer ^ 2 - 19000.0 layer_particle * particle_layer  ]  <= 789.5
4.0 layer_1 + layer_c + 1900.0 particle_1 + particle_c +  err75 +  [ 16.0 layer_particle ^ 2 + 3610000.0 particle_layer ^ 2 - 15200.0 layer_particle * particle_layer  ]  <= 653.7
5.0 layer_1 + layer_c + 1800.0 particle_1 + particle_c +  err76 +  [ 25.0 layer_particle ^ 2 + 3240000.0 particle_layer ^ 2 - 18000.0 layer_particle * particle_layer  ]  <= 749.7
4.0 layer_1 + layer_c + 1800.0 particle_1 + particle_c +  err77 +  [ 16.0 layer_particle ^ 2 + 3240000.0 particle_layer ^ 2 - 14400.0 layer_particle * particle_layer  ]  <= 626.2
5.0 layer_1 + layer_c + 1700.0 particle_1 + particle_c +  err78 +  [ 25.0 layer_particle ^ 2 + 2890000.0 particle_layer ^ 2 - 17000.0 layer_particle * particle_layer  ]  <= 716.0
4.0 layer_1 + layer_c + 1700.0 particle_1 + particle_c +  err79 +  [ 16.0 layer_particle ^ 2 + 2890000.0 particle_layer ^ 2 - 13600.0 layer_particle * particle_layer  ]  <= 595.8
5.0 layer_1 + layer_c + 1600.0 particle_1 + particle_c +  err80 +  [ 25.0 layer_particle ^ 2 + 2560000.0 particle_layer ^ 2 - 16000.0 layer_particle * particle_layer  ]  <= 679.9
4.0 layer_1 + layer_c + 1600.0 particle_1 + particle_c +  err81 +  [ 16.0 layer_particle ^ 2 + 2560000.0 particle_layer ^ 2 - 12800.0 layer_particle * particle_layer  ]  <= 567.0
5.0 layer_1 + layer_c + 1500.0 particle_1 + particle_c +  err82 +  [ 25.0 layer_particle ^ 2 + 2250000.0 particle_layer ^ 2 - 15000.0 layer_particle * particle_layer  ]  <= 643.0
4.0 layer_1 + layer_c + 1500.0 particle_1 + particle_c +  err83 +  [ 16.0 layer_particle ^ 2 + 2250000.0 particle_layer ^ 2 - 12000.0 layer_particle * particle_layer  ]  <= 540.9
5.0 layer_1 + layer_c + 1400.0 particle_1 + particle_c +  err84 +  [ 25.0 layer_particle ^ 2 + 1960000.0 particle_layer ^ 2 - 14000.0 layer_particle * particle_layer  ]  <= 608.3
4.0 layer_1 + layer_c + 1400.0 particle_1 + particle_c +  err85 +  [ 16.0 layer_particle ^ 2 + 1960000.0 particle_layer ^ 2 - 11200.0 layer_particle * particle_layer  ]  <= 510.8
5.0 layer_1 + layer_c + 1300.0 particle_1 + particle_c +  err86 +  [ 25.0 layer_particle ^ 2 + 1690000.0 particle_layer ^ 2 - 13000.0 layer_particle * particle_layer  ]  <= 573.3
4.0 layer_1 + layer_c + 1300.0 particle_1 + particle_c +  err87 +  [ 16.0 layer_particle ^ 2 + 1690000.0 particle_layer ^ 2 - 10400.0 layer_particle * particle_layer  ]  <= 481.3
5.0 layer_1 + layer_c + 1200.0 particle_1 + particle_c +  err88 +  [ 25.0 layer_particle ^ 2 + 1440000.0 particle_layer ^ 2 - 12000.0 layer_particle * particle_layer  ]  <= 539.5
4.0 layer_1 + layer_c + 1200.0 particle_1 + particle_c +  err89 +  [ 16.0 layer_particle ^ 2 + 1440000.0 particle_layer ^ 2 - 9600.0 layer_particle * particle_layer  ]  <= 453.0
5.0 layer_1 + layer_c + 1100.0 particle_1 + particle_c +  err90 +  [ 25.0 layer_particle ^ 2 + 1210000.0 particle_layer ^ 2 - 11000.0 layer_particle * particle_layer  ]  <= 501.4
4.0 layer_1 + layer_c + 1100.0 particle_1 + particle_c +  err91 +  [ 16.0 layer_particle ^ 2 + 1210000.0 particle_layer ^ 2 - 8800.0 layer_particle * particle_layer  ]  <= 423.2
5.0 layer_1 + layer_c + 1000.0 particle_1 + particle_c +  err92 +  [ 25.0 layer_particle ^ 2 + 1000000.0 particle_layer ^ 2 - 10000.0 layer_particle * particle_layer  ]  <= 463.8
4.0 layer_1 + layer_c + 1000.0 particle_1 + particle_c +  err93 +  [ 16.0 layer_particle ^ 2 + 1000000.0 particle_layer ^ 2 - 8000.0 layer_particle * particle_layer  ]  <= 394.8
5.0 layer_1 + layer_c + 900.0 particle_1 + particle_c +  err94 +  [ 25.0 layer_particle ^ 2 + 810000.0 particle_layer ^ 2 - 9000.0 layer_particle * particle_layer  ]  <= 429.2
4.0 layer_1 + layer_c + 900.0 particle_1 + particle_c +  err95 +  [ 16.0 layer_particle ^ 2 + 810000.0 particle_layer ^ 2 - 7200.0 layer_particle * particle_layer  ]  <= 366.5
5.0 layer_1 + layer_c + 800.0 particle_1 + particle_c +  err96 +  [ 25.0 layer_particle ^ 2 + 640000.0 particle_layer ^ 2 - 8000.0 layer_particle * particle_layer  ]  <= 394.3
4.0 layer_1 + layer_c + 800.0 particle_1 + particle_c +  err97 +  [ 16.0 layer_particle ^ 2 + 640000.0 particle_layer ^ 2 - 6400.0 layer_particle * particle_layer  ]  <= 338.6
5.0 layer_1 + layer_c + 700.0 particle_1 + particle_c +  err98 +  [ 25.0 layer_particle ^ 2 + 490000.0 particle_layer ^ 2 - 7000.0 layer_particle * particle_layer  ]  <= 358.9
4.0 layer_1 + layer_c + 700.0 particle_1 + particle_c +  err99 +  [ 16.0 layer_particle ^ 2 + 490000.0 particle_layer ^ 2 - 5600.0 layer_particle * particle_layer  ]  <= 309.4
5.0 layer_1 + layer_c + 600.0 particle_1 + particle_c +  err100 +  [ 25.0 layer_particle ^ 2 + 360000.0 particle_layer ^ 2 - 6000.0 layer_particle * particle_layer  ]  <= 322.8
4.0 layer_1 + layer_c + 600.0 particle_1 + particle_c +  err101 +  [ 16.0 layer_particle ^ 2 + 360000.0 particle_layer ^ 2 - 4800.0 layer_particle * particle_layer  ]  <= 280.9
5.0 layer_1 + layer_c + 500.0 particle_1 + particle_c +  err102 +  [ 25.0 layer_particle ^ 2 + 250000.0 particle_layer ^ 2 - 5000.0 layer_particle * particle_layer  ]  <= 288.4
4.0 layer_1 + layer_c + 500.0 particle_1 + particle_c +  err103 +  [ 16.0 layer_particle ^ 2 + 250000.0 particle_layer ^ 2 - 4000.0 layer_particle * particle_layer  ]  <= 252.3
5.0 layer_1 + layer_c + 400.0 particle_1 + particle_c +  err104 +  [ 25.0 layer_particle ^ 2 + 160000.0 particle_layer ^ 2 - 4000.0 layer_particle * particle_layer  ]  <= 250.8
4.0 layer_1 + layer_c + 400.0 particle_1 + particle_c +  err105 +  [ 16.0 layer_particle ^ 2 + 160000.0 particle_layer ^ 2 - 3200.0 layer_particle * particle_layer  ]  <= 223.5
5.0 layer_1 + layer_c + 300.0 particle_1 + particle_c +  err106 +  [ 25.0 layer_particle ^ 2 + 90000.0 particle_layer ^ 2 - 3000.0 layer_particle * particle_layer  ]  <= 215.8
4.0 layer_1 + layer_c + 300.0 particle_1 + particle_c +  err107 +  [ 16.0 layer_particle ^ 2 + 90000.0 particle_layer ^ 2 - 2400.0 layer_particle * particle_layer  ]  <= 194.5
5.0 layer_1 + layer_c + 200.0 particle_1 + particle_c +  err108 +  [ 25.0 layer_particle ^ 2 + 40000.0 particle_layer ^ 2 - 2000.0 layer_particle * particle_layer  ]  <= 180.3
4.0 layer_1 + layer_c + 200.0 particle_1 + particle_c +  err109 +  [ 16.0 layer_particle ^ 2 + 40000.0 particle_layer ^ 2 - 1600.0 layer_particle * particle_layer  ]  <= 166.7
5.0 layer_1 + layer_c + 100.0 particle_1 + particle_c +  err110 +  [ 25.0 layer_particle ^ 2 + 10000.0 particle_layer ^ 2 - 1000.0 layer_particle * particle_layer  ]  <= 144.6
4.0 layer_1 + layer_c + 100.0 particle_1 + particle_c +  err111 +  [ 16.0 layer_particle ^ 2 + 10000.0 particle_layer ^ 2 - 800.0 layer_particle * particle_layer  ]  <= 139.0
